(set-logic QF_BV)
(declare-fun _substvar_108_ () (_ BitVec 8))
(declare-fun _substvar_124_ () (_ BitVec 8))
(declare-fun _substvar_120_ () (_ BitVec 16))
(declare-fun _substvar_163_ () Bool)
(declare-fun _substvar_118_ () (_ BitVec 8))
(assert (let ((?v_0 ((_ zero_extend 16) _substvar_120_))) (let ((?v_2 (bvadd ?v_0 (bvsub (_ bv4294967295 32) ((_ zero_extend 24) _substvar_118_))))) (let ((?v_3 (bvadd ?v_2 (_ bv0 32)))) (let ((?v_1 (bvadd ?v_3 (bvsub (_ bv4294967295 32) ((_ zero_extend 24) _substvar_108_))))) (and true true (= ?v_1 (_ bv0 32)) (not (= ?v_0 (_ bv0 32))) (= (bvadd (bvadd ?v_1 (bvsub (_ bv4294967295 32) ((_ zero_extend 24) _substvar_124_))) (_ bv0 32)) (_ bv0 32)) _substvar_163_ true))))))
(check-sat)
(exit)
